c Run with options: w=1 E=116 e=1 A=48 a=3 o=./instances/ctrl-s-64-E-110-150-2-A-48-48-1-w-1-9-2/ctrl.e#1.a#3.E#116.A#48.c#.w#1.s#6.asp generator=StructuredCIGenerator out=DualOutput 
p cnf 164 232
a 1 2 3 4 5 6 7 8 9 10 11 12 13 14 15 16 17 18 19 20 21 22 23 24 25 26 27 28 29 30 31 32 33 34 35 36 37 38 39 40 41 42 43 44 45 46 47 48 49 50 51 52 53 54 55 56 57 58 59 60 61 62 63 64 65 66 67 68 69 70 71 72 73 74 75 76 77 78 79 80 81 82 83 84 85 86 87 88 89 90 91 92 93 94 95 96 97 98 99 100 101 102 103 104 105 106 107 108 109 110 111 112 113 114 115 116 0
e 117 118 119 120 121 122 123 124 125 126 127 128 129 130 131 132 133 134 135 136 137 138 139 140 141 142 143 144 145 146 147 148 149 150 151 152 153 154 155 156 157 158 159 160 161 162 163 164 0
-1 -159 -120 150 0
-2 147 162 128 0
-3 144 -145 -134 0
-4 -127 -120 132 0
-5 -144 -130 164 0
-6 159 -164 -145 0
-7 143 160 -139 0
-8 123 -164 128 0
-9 148 -130 -152 0
-10 -137 126 160 0
-11 -130 134 -139 0
-12 119 -151 126 0
-13 -149 -161 127 0
-14 144 -157 -139 0
-15 117 164 139 0
-16 144 -154 153 0
-17 -150 125 126 0
-18 132 152 126 0
-19 146 -142 -128 0
-20 163 142 132 0
-21 137 155 -147 0
-22 164 -146 163 0
-23 -122 138 137 0
-24 -132 -162 148 0
-25 151 -139 122 0
-26 128 117 -151 0
-27 -158 -132 -152 0
-28 -151 -139 156 0
-29 -145 121 155 0
-30 149 -140 124 0
-31 -142 138 161 0
-32 -164 140 134 0
-33 -120 131 153 0
-34 122 152 -146 0
-35 -128 124 -134 0
-36 -159 -128 133 0
-37 159 -153 -148 0
-38 160 -139 118 0
-39 -153 -146 -121 0
-40 -153 -142 -124 0
-41 153 -128 -126 0
-42 145 125 138 0
-43 -163 164 -143 0
-44 -161 -131 -126 0
-45 132 127 136 0
-46 -146 -161 123 0
-47 -160 -139 164 0
-48 -119 128 -153 0
-49 137 121 -147 0
-50 148 -124 137 0
-51 -139 -123 -158 0
-52 145 -133 -156 0
-53 -124 -136 129 0
-54 -155 -120 -126 0
-55 -137 119 134 0
-56 -120 129 -148 0
-57 -130 -117 143 0
-58 154 142 -134 0
-59 132 -158 160 0
-60 -131 -150 125 0
-61 121 -158 144 0
-62 164 -155 123 0
-63 -130 -142 157 0
-64 -134 132 118 0
-65 -156 135 131 0
-66 120 149 130 0
-67 132 -163 -152 0
-68 151 -152 164 0
-69 133 -159 -128 0
-70 121 127 153 0
-71 -158 145 -162 0
-72 124 -119 131 0
-73 -157 -133 -136 0
-74 -119 145 124 0
-75 -144 -130 140 0
-76 -146 128 -138 0
-77 -154 121 -162 0
-78 -117 153 -118 0
-79 119 145 150 0
-80 -132 -130 -117 0
-81 124 -132 135 0
-82 -123 162 -136 0
-83 159 129 156 0
-84 155 -144 -122 0
-85 147 -164 -160 0
-86 145 131 -117 0
-87 -134 148 -128 0
-88 -137 -135 164 0
-89 137 -123 -153 0
-90 163 -142 152 0
-91 -118 164 146 0
-92 -125 -119 -132 0
-93 -117 -133 154 0
-94 -161 -121 -122 0
-95 142 -152 -143 0
-96 153 -144 -138 0
-97 149 -123 155 0
-98 -159 -155 131 0
-99 -118 129 128 0
-100 -133 -134 -158 0
-101 -125 -157 -124 0
-102 -147 -157 149 0
-103 161 -141 129 0
-104 -153 141 -124 0
-105 -120 146 -158 0
-106 -154 -127 -140 0
-107 156 154 -164 0
-108 133 142 128 0
-109 122 -136 -162 0
-110 130 -154 145 0
-111 154 155 -130 0
-112 158 160 -138 0
-113 151 142 -128 0
-114 144 159 -148 0
-115 -151 -138 -145 0
-116 141 154 -121 0
1 159 -121 149 0
2 -133 -118 -137 0
3 -148 -145 -119 0
4 154 160 -131 0
5 121 154 -153 0
6 -117 -156 138 0
7 -156 -157 -135 0
8 -134 148 158 0
9 142 -148 133 0
10 -118 -128 -131 0
11 -141 -118 132 0
12 -160 137 134 0
13 -118 144 154 0
14 -140 -163 -120 0
15 158 133 -127 0
16 -155 -118 136 0
17 -138 152 -125 0
18 -139 -127 -118 0
19 -134 146 -152 0
20 152 163 160 0
21 -160 123 -124 0
22 159 -143 131 0
23 -143 156 -118 0
24 -136 -135 130 0
25 133 -117 152 0
26 -122 -138 119 0
27 -129 -134 127 0
28 157 138 117 0
29 122 160 118 0
30 -145 -155 -121 0
31 148 157 151 0
32 -126 -131 -137 0
33 126 127 -146 0
34 120 163 118 0
35 -131 -164 150 0
36 120 -118 161 0
37 -152 162 -132 0
38 -144 117 127 0
39 -121 -123 -149 0
40 151 144 123 0
41 158 -151 126 0
42 -161 -130 -122 0
43 -153 -148 157 0
44 158 150 153 0
45 127 -149 -132 0
46 118 -132 135 0
47 -134 146 139 0
48 -150 141 153 0
49 136 132 131 0
50 164 157 120 0
51 139 -122 123 0
52 -132 -133 150 0
53 -143 -126 -124 0
54 125 -143 -160 0
55 -138 117 118 0
56 130 162 140 0
57 148 -143 161 0
58 -157 117 -152 0
59 147 144 -141 0
60 164 147 -143 0
61 157 158 -151 0
62 120 -163 -125 0
63 -118 143 151 0
64 -119 163 152 0
65 142 -143 162 0
66 164 -129 -134 0
67 154 -122 -163 0
68 -131 -140 -163 0
69 136 144 -131 0
70 122 -154 142 0
71 155 -129 121 0
72 164 -156 155 0
73 139 138 -133 0
74 163 -154 -129 0
75 -131 -152 122 0
76 137 129 -146 0
77 -155 131 -129 0
78 -161 154 123 0
79 121 -141 -119 0
80 -153 132 -147 0
81 143 119 -117 0
82 132 155 163 0
83 136 -156 154 0
84 125 137 -152 0
85 -123 -147 -138 0
86 -137 -149 -145 0
87 138 -123 144 0
88 -120 -162 129 0
89 124 119 -145 0
90 141 -159 -138 0
91 -121 139 120 0
92 -118 -131 152 0
93 -162 -146 -144 0
94 -153 147 122 0
95 139 -152 122 0
96 153 -151 123 0
97 156 -130 157 0
98 -134 142 -135 0
99 -148 144 -158 0
100 -150 119 164 0
101 -155 -161 139 0
102 132 163 156 0
103 117 -138 -161 0
104 -148 137 122 0
105 -138 -133 132 0
106 -159 -147 163 0
107 120 -122 -128 0
108 154 -145 159 0
109 147 155 -140 0
110 -159 -161 125 0
111 -119 155 -124 0
112 132 128 -141 0
113 -155 149 -129 0
114 121 -152 156 0
115 162 -155 -132 0
116 -118 -119 121 0
